letting n_nurses=25
letting n_days=7
letting n_shift_types=4
letting max_covers=12
letting t_covers=61
letting covers=[1,0,0,0,2,9,0,0,2,9,0,0,2,12,0,0,2,8,0,0,0,0,0,0,12,2,0,0]
letting prefes=[2,1,2,1,1,2,2,1,1,2,2,1,1,1,1,1,1,2,2,1,1,2,2,1,1,1,1,1,1,1,1,1,1,1,1,2,1,1,1,2,1,2,1,1,1,1,1,2,1,1,1,2,1,2,1,1,2,2,2,2,1,2,2,1,1,2,2,1,1,2,1,1,1,2,2,1,1,2,2,1,1,2,1,1,2,1,2,1,1,2,2,2,1,2,2,2,1,2,1,1,1,2,2,2,1,2,2,2,1,2,1,1,2,1,2,1,2,2,2,2,2,2,2,2,1,2,1,1,2,2,2,2,2,2,2,2,1,2,1,1,2,1,2,1,1,2,2,2,1,2,2,2,3,2,3,3,1,2,2,2,1,2,2,2,3,2,3,3,2,1,2,1,1,2,2,2,1,2,2,2,1,2,1,1,1,2,2,2,1,2,2,2,1,2,1,1,2,1,2,1,1,2,2,2,1,2,2,2,1,1,1,1,1,2,2,2,1,2,2,2,1,1,1,1,2,2,1,2,1,1,1,1,1,1,1,1,3,2,3,3,1,1,1,1,1,1,1,1,3,2,3,3,2,1,1,1,1,1,1,2,1,1,1,2,3,2,3,3,1,1,1,2,1,1,1,2,3,2,3,3,1,1,2,1,1,2,2,2,1,2,2,2,1,1,1,1,1,2,2,2,1,2,2,2,1,1,1,1,1,1,1,1,1,1,1,2,1,1,1,2,1,2,1,1,1,1,1,2,1,1,1,2,1,2,1,1,2,1,1,1,1,1,1,2,1,1,1,2,1,2,1,1,1,1,1,2,1,1,1,2,1,2,1,1,2,1,2,1,2,2,2,2,2,2,2,2,1,2,1,1,2,2,2,2,2,2,2,2,1,2,1,1,2,2,2,2,1,2,2,1,1,2,2,1,1,2,1,1,1,2,2,1,1,2,2,1,1,2,1,1,2,2,2,2,1,2,2,2,1,2,2,2,1,2,1,1,1,2,2,2,1,2,2,2,1,2,1,1,2,1,2,1,1,2,2,2,1,2,2,2,1,1,1,1,1,2,2,2,1,2,2,2,1,1,1,1,2,1,2,1,1,2,2,2,1,2,2,2,1,2,1,1,1,2,2,2,1,2,2,2,1,2,1,1,1,1,2,1,2,2,2,2,2,2,2,2,3,2,3,3,2,2,2,2,2,2,2,2,3,2,3,3,2,1,2,1,1,2,2,2,1,2,2,2,3,2,3,3,1,2,2,2,1,2,2,2,3,2,3,3,2,1,2,1,1,2,2,2,1,2,2,2,1,2,1,1,1,2,2,2,1,2,2,2,1,2,1,1,2,1,2,1,2,2,2,2,2,2,2,2,1,2,1,1,2,2,2,2,2,2,2,2,1,2,1,1,1,1,2,1,2,2,2,2,2,2,2,2,1,2,1,1,2,2,2,2,2,2,2,2,1,2,1,1,2,2,2,2,1,2,2,2,1,2,2,2,1,1,1,1,1,2,2,2,1,2,2,2,1,1,1,1,2,1,2,1,1,2,2,1,1,2,2,1,1,2,1,1,1,2,2,1,1,2,2,1,1,2,1,1]
letting ub =  214
